letting n =  10
letting blocks =  [[1, 10], [2, 1], [2, 7], [2, 9], [3, 1], [3, 2], [3, 4], [3, 5], [3, 7], [4, 4], [4, 7], [4, 8], [4, 9], [5, 3], [5, 4], [5, 5], [5, 6], [5, 9], [6, 4], [6, 5], [6, 9], [6, 10], [7, 4], [7, 6], [8, 1], [8, 3], [8, 6], [9, 4], [10, 2], [10, 3], [10, 6], [10, 8]]
